3 16 1 10
12 2 15 17 6 3 11 12 18 9 18 1 3 1 5 5 
0.82 1.5 7.05 11.12 0.48 2.33 7.31 7.25 10.39 3.45 4.46 5.66 10.82 7.88 9.45 14.61 
8 8 8 8 8 8 8 8 8 8 8 8 8 8 8 8 
0.38 12.25 8.94 15.58 4.15 6.44 6.64 8.84 4.54 4.9 11.09 9.39 7.05 4.4 2.51 7.27 
1 1 1 1 1 1 1 1 1 1 1 1 1 1 1 1 
1 1 1 1 1 1 1 1 1 1 1 1 1 1 1 1 
1 1 1 1 1 1 1 1 1 1 1 1 1 1 1 1 
0.01 0.01 0.01 0.01 0.01 0.01 0.01 0.01 0.01 0.01 0.01 0.01 0.01 0.01 0.01 0.01 
0.02 0.02 0.02 0.02 0.02 0.02 0.02 0.02 0.02 0.02 0.02 0.02 0.02 0.02 0.02 0.02 
1 1 1 1 1 1 1 1 1 1 1 1 1 1 1 1 
